(declare-const y Int)
(declare-const tmp___1 Int)
(declare-const havoc Int)
(declare-const x Int)
(declare-const phi_x0 Int)
(declare-const phi_y Int)
(declare-const term_to_project_onto_integralized Int)
(declare-const term_to_project_onto0_integralized Int)
(declare-const |x'| Int)
(declare-const |tmp___1'| Int)
(declare-const |y'| Int)
(declare-const term_to_project_onto1_integralized Int)
(declare-const phi_x1 Int)
(declare-const phi_x Int)
(assert (and (or (<= (+ havoc 1) 0) (<= (+ (- havoc) 1) 0))
               (or (and (= x 0)
                          (or (and (<= y 0) (= (+ (- phi_x) x -1) 0))
                                (and (<= (+ (- y) 1) 0)
                                       (= (+ (- phi_x) x 1) 0)))
                          (= (+ (- phi_x0) phi_x) 0))
                     (and (or (<= (+ x 1) 0) (<= (+ (- x) 1) 0))
                            (= (+ (- phi_x0) x) 0)))
               (or (and (<= phi_x0 0) (= (+ (- phi_x1) phi_x0 -1) 0)
                          (= (+ (- phi_y) y) 0))
                     (and (<= (+ (- phi_x0) 1) 0) (= (+ (- phi_x1) phi_x0) 0)
                            (= (+ (- phi_y) y 1) 0)))
               (= (+ |tmp___1'| (- havoc)) 0) (= (+ |y'| (- phi_y)) 0)
               (= (+ |x'| (- phi_x1)) 0)
               (= (+ term_to_project_onto1_integralized (- (+ |x'| (- x)))) 0)
               (= (+ term_to_project_onto0_integralized (- (+ |y'| (- y)))) 0)
               (= (+ term_to_project_onto_integralized
                       (- (+ |tmp___1'| (- tmp___1)))) 0)))